NAME Master problem
ROWS
 N  OBJ
 E  con_beta_0
 G  con_beta_ul_nco[PPE1]
 G  con_beta_pw_0dkc[0,C1,P1,CPU1]
 G  con_beta_pw_0dkc[0,C2,P1,CPU1]
 G  con_beta_pw_1TLdkc[1,C1,P1,CPU1]
 G  con_beta_pw_1TLdkc[1,C2,P1,CPU1]
 G  con_beta_pw_TLMdkc[2,C1,P1,CPU1]
 G  con_beta_pw_TLMdkc[2,C2,P1,CPU1]
 G  con_beta_pw_TLMdkc[3,C1,P1,CPU1]
 G  con_beta_pw_TLMdkc[3,C2,P1,CPU1]
 G  con_beta_pw_Mdkc[4,C1,P1,CPU1]
 G  con_beta_pw_Mdkc[4,C2,P1,CPU1]
 G  con_beta_ps_t0dkc[1,0,C1,P1,CPU1]
 G  con_beta_ps_t0dkc[1,0,C2,P1,CPU1]
 G  con_beta_ps_t0dkc[2,0,C1,P1,CPU1]
 G  con_beta_ps_t0dkc[2,0,C2,P1,CPU1]
 G  con_beta_ps_t0dkc[3,0,C1,P1,CPU1]
 G  con_beta_ps_t0dkc[3,0,C2,P1,CPU1]
 G  con_beta_ps_t1TLdkc[1,1,C1,P1,CPU1]
 G  con_beta_ps_t1TLdkc[1,1,C2,P1,CPU1]
 G  con_beta_ps_t1TLdkc[2,1,C1,P1,CPU1]
 G  con_beta_ps_t1TLdkc[2,1,C2,P1,CPU1]
 G  con_beta_ps_t1TLdkc[3,1,C1,P1,CPU1]
 G  con_beta_ps_t1TLdkc[3,1,C2,P1,CPU1]
 G  con_beta_ps_tTLMdkc[1,2,C1,P1,CPU1]
 G  con_beta_ps_tTLMdkc[1,2,C2,P1,CPU1]
 G  con_beta_ps_tTLMdkc[1,3,C1,P1,CPU1]
 G  con_beta_ps_tTLMdkc[1,3,C2,P1,CPU1]
 G  con_beta_ps_tTLMdkc[2,2,C1,P1,CPU1]
 G  con_beta_ps_tTLMdkc[2,2,C2,P1,CPU1]
 G  con_beta_ps_tTLMdkc[2,3,C1,P1,CPU1]
 G  con_beta_ps_tTLMdkc[2,3,C2,P1,CPU1]
 G  con_beta_ps_tTLMdkc[3,2,C1,P1,CPU1]
 G  con_beta_ps_tTLMdkc[3,2,C2,P1,CPU1]
 G  con_beta_ps_tTLMdkc[3,3,C1,P1,CPU1]
 G  con_beta_ps_tTLMdkc[3,3,C2,P1,CPU1]
 G  con_beta_ps_tMdkc[1,4,C1,P1,CPU1]
 G  con_beta_ps_tMdkc[1,4,C2,P1,CPU1]
 G  con_beta_ps_tMdkc[2,4,C1,P1,CPU1]
 G  con_beta_ps_tMdkc[2,4,C2,P1,CPU1]
 G  con_beta_ps_tMdkc[3,4,C1,P1,CPU1]
 G  con_beta_ps_tMdkc[3,4,C2,P1,CPU1]
 G  con_beta_ps_Tmdkc[4,0,C1,P1,CPU1]
 G  con_beta_ps_Tmdkc[4,0,C2,P1,CPU1]
 G  con_beta_ps_Tmdkc[4,1,C1,P1,CPU1]
 G  con_beta_ps_Tmdkc[4,1,C2,P1,CPU1]
 G  con_beta_ps_Tmdkc[4,2,C1,P1,CPU1]
 G  con_beta_ps_Tmdkc[4,2,C2,P1,CPU1]
 G  con_beta_ps_Tmdkc[4,3,C1,P1,CPU1]
 G  con_beta_ps_Tmdkc[4,3,C2,P1,CPU1]
 G  con_beta_ps_Tmdkc[4,4,C1,P1,CPU1]
 G  con_beta_ps_Tmdkc[4,4,C2,P1,CPU1]
COLUMNS
    sa_0      con_beta_0  1.0000000000000009e-02
    sa_0      con_beta_ul_nco[PPE1]  60
    sa_0      con_beta_pw_0dkc[0,C1,P1,CPU1]  -8.91
    sa_0      con_beta_ps_t1TLdkc[3,1,C1,P1,CPU1]  -9.9
    sa_0      con_beta_ps_tTLMdkc[1,2,C1,P1,CPU1]  30
    sa_0      con_beta_ps_tTLMdkc[1,3,C1,P1,CPU1]  -1.782
    sa_0      con_beta_ps_tTLMdkc[1,3,C2,P1,CPU1]  -0.198
    sa_0      con_beta_ps_tTLMdkc[2,2,C1,P1,CPU1]  2
    sa_0      con_beta_ps_tTLMdkc[2,3,C1,P1,CPU1]  -1.782
    sa_0      con_beta_ps_tTLMdkc[2,3,C2,P1,CPU1]  -6.138
    sa_0      con_beta_ps_tTLMdkc[3,2,C1,P1,CPU1]  2
    sa_0      con_beta_ps_tTLMdkc[3,2,C2,P1,CPU1]  6
    sa_0      con_beta_ps_tMdkc[1,4,C2,P1,CPU1]  -5.9399999999999995e+00
    sa_0      con_beta_ps_tMdkc[2,4,C2,P1,CPU1]  6
    sa_0      con_beta_ps_Tmdkc[4,0,C1,P1,CPU1]  10
    sa_1      OBJ       8.91
    sa_1      con_beta_0  1.0000000000000009e-02
    sa_1      con_beta_ul_nco[PPE1]  60
    sa_1      con_beta_pw_0dkc[0,C1,P1,CPU1]  -8.91
    sa_1      con_beta_pw_Mdkc[4,C2,P1,CPU1]  9
    sa_1      con_beta_ps_tTLMdkc[1,3,C1,P1,CPU1]  -8.91
    sa_1      con_beta_ps_tTLMdkc[1,3,C2,P1,CPU1]  -0.99
    sa_1      con_beta_ps_tTLMdkc[2,2,C1,P1,CPU1]  10
    sa_1      con_beta_ps_tTLMdkc[2,3,C2,P1,CPU1]  -6.93
    sa_1      con_beta_ps_tTLMdkc[3,2,C2,P1,CPU1]  7
    sa_1      con_beta_ps_tTLMdkc[3,3,C1,P1,CPU1]  -8.91
    sa_1      con_beta_ps_tTLMdkc[3,3,C2,P1,CPU1]  -0.99
    sa_1      con_beta_ps_tMdkc[1,4,C1,P1,CPU1]  18
    sa_1      con_beta_ps_Tmdkc[4,2,C1,P1,CPU1]  10
    sa_2      con_beta_0  1.0000000000000009e-02
    sa_2      con_beta_ul_nco[PPE1]  60
    sa_2      con_beta_pw_0dkc[0,C1,P1,CPU1]  -8.91
    sa_2      con_beta_ps_t1TLdkc[1,1,C1,P1,CPU1]  30
    sa_2      con_beta_ps_tMdkc[1,4,C1,P1,CPU1]  -8.91
    sa_2      con_beta_ps_tMdkc[1,4,C2,P1,CPU1]  -0.99
    sa_2      con_beta_ps_tMdkc[2,4,C1,P1,CPU1]  10
    sa_3      OBJ       17.82
    sa_3      con_beta_0  1.0000000000000009e-02
    sa_3      con_beta_ul_nco[PPE1]  60
    sa_3      con_beta_pw_0dkc[0,C1,P1,CPU1]  -8.91
    sa_3      con_beta_pw_TLMdkc[2,C1,P1,CPU1]  18
    sa_3      con_beta_ps_t0dkc[3,0,C1,P1,CPU1]  10
    sa_3      con_beta_ps_t1TLdkc[2,1,C1,P1,CPU1]  -9.9
    sa_3      con_beta_ps_tTLMdkc[1,3,C1,P1,CPU1]  -1.782
    sa_3      con_beta_ps_tTLMdkc[1,3,C2,P1,CPU1]  -0.198
    sa_3      con_beta_ps_tTLMdkc[2,2,C1,P1,CPU1]  2
    sa_3      con_beta_ps_tTLMdkc[2,3,C2,P1,CPU1]  6
    sa_3      con_beta_ps_tMdkc[1,4,C2,P1,CPU1]  3.0600000000000005e+00
    sa_4      OBJ       29.7
    sa_4      con_beta_0  1.0000000000000009e-02
    sa_4      con_beta_ul_nco[PPE1]  60
    sa_4      con_beta_pw_0dkc[0,C1,P1,CPU1]  -8.91
    sa_4      con_beta_pw_TLMdkc[3,C1,P1,CPU1]  30
    sa_4      con_beta_ps_t1TLdkc[2,1,C1,P1,CPU1]  10
    sa_4      con_beta_ps_tTLMdkc[1,2,C1,P1,CPU1]  -8.91
    sa_4      con_beta_ps_tTLMdkc[1,2,C2,P1,CPU1]  -0.99
    sa_4      con_beta_ps_tTLMdkc[2,3,C1,P1,CPU1]  -8.91
    sa_4      con_beta_ps_tTLMdkc[2,3,C2,P1,CPU1]  -0.99
    sa_4      con_beta_ps_tTLMdkc[3,2,C1,P1,CPU1]  10
    sa_4      con_beta_ps_tMdkc[3,4,C2,P1,CPU1]  -6.93
    sa_4      con_beta_ps_Tmdkc[4,3,C2,P1,CPU1]  7
    sa_5      OBJ       17.82
    sa_5      con_beta_0  1.0000000000000009e-02
    sa_5      con_beta_ul_nco[PPE1]  60
    sa_5      con_beta_pw_0dkc[0,C1,P1,CPU1]  9.09
    sa_5      con_beta_ps_t0dkc[2,0,C1,P1,CPU1]  10
    sa_5      con_beta_ps_t1TLdkc[1,1,C1,P1,CPU1]  -9.9
    sa_5      con_beta_ps_t1TLdkc[3,1,C1,P1,CPU1]  10
    sa_5      con_beta_ps_tTLMdkc[1,2,C2,P1,CPU1]  9
    sa_5      con_beta_ps_tTLMdkc[2,2,C1,P1,CPU1]  -8.91
    sa_5      con_beta_ps_tTLMdkc[2,2,C2,P1,CPU1]  -0.99
    sa_5      con_beta_ps_tMdkc[3,4,C2,P1,CPU1]  -6.93
    sa_5      con_beta_ps_Tmdkc[4,4,C2,P1,CPU1]  7
    sa_6      OBJ       17.82
    sa_6      con_beta_0  1.0000000000000009e-02
    sa_6      con_beta_ul_nco[PPE1]  60
    sa_6      con_beta_pw_0dkc[0,C1,P1,CPU1]  9.09
    sa_6      con_beta_ps_tTLMdkc[1,3,C2,P1,CPU1]  9
    sa_6      con_beta_ps_tTLMdkc[2,3,C1,P1,CPU1]  2
    sa_6      con_beta_ps_tMdkc[1,4,C1,P1,CPU1]  -1.782
    sa_6      con_beta_ps_tMdkc[1,4,C2,P1,CPU1]  -6.138
    sa_6      con_beta_ps_tMdkc[2,4,C1,P1,CPU1]  -8.91
    sa_6      con_beta_ps_tMdkc[2,4,C2,P1,CPU1]  5.01
    sa_6      con_beta_ps_tMdkc[3,4,C1,P1,CPU1]  10
    sa_7      OBJ       29.7
    sa_7      con_beta_0  1.0000000000000009e-02
    sa_7      con_beta_ul_nco[PPE1]  60
    sa_7      con_beta_pw_0dkc[0,C1,P1,CPU1]  21.09
    sa_7      con_beta_ps_t1TLdkc[2,1,C1,P1,CPU1]  10
    sa_7      con_beta_ps_tTLMdkc[1,2,C1,P1,CPU1]  -8.91
    sa_7      con_beta_ps_tTLMdkc[1,2,C2,P1,CPU1]  -0.99
    sa_7      con_beta_ps_tTLMdkc[3,3,C1,P1,CPU1]  10
    sa_7      con_beta_ps_tMdkc[2,4,C1,P1,CPU1]  -8.91
    sa_7      con_beta_ps_tMdkc[2,4,C2,P1,CPU1]  -0.99
    sa_8      con_beta_0  1.0000000000000009e-02
    sa_8      con_beta_ul_nco[PPE1]  60
    sa_8      con_beta_pw_0dkc[0,C1,P1,CPU1]  -8.91
    sa_8      con_beta_ps_t1TLdkc[2,1,C1,P1,CPU1]  10
    sa_8      con_beta_ps_tTLMdkc[1,2,C1,P1,CPU1]  -8.91
    sa_8      con_beta_ps_tTLMdkc[1,2,C2,P1,CPU1]  -0.99
    sa_8      con_beta_ps_tTLMdkc[2,3,C1,P1,CPU1]  -8.91
    sa_8      con_beta_ps_tTLMdkc[2,3,C2,P1,CPU1]  -0.99
    sa_8      con_beta_ps_tTLMdkc[3,2,C1,P1,CPU1]  10
    sa_8      con_beta_ps_tMdkc[1,4,C1,P1,CPU1]  18
    sa_8      con_beta_ps_tMdkc[1,4,C2,P1,CPU1]  9
    sa_9      con_beta_0  1.0000000000000009e-02
    sa_9      con_beta_ul_nco[PPE1]  60
    sa_9      con_beta_pw_0dkc[0,C1,P1,CPU1]  -8.91
    sa_9      con_beta_ps_tTLMdkc[2,3,C1,P1,CPU1]  10
    sa_9      con_beta_ps_tTLMdkc[3,3,C2,P1,CPU1]  7
    sa_9      con_beta_ps_tMdkc[1,4,C1,P1,CPU1]  9.09
    sa_9      con_beta_ps_tMdkc[1,4,C2,P1,CPU1]  8.01
    sa_9      con_beta_ps_tMdkc[2,4,C2,P1,CPU1]  -6.93
    sa_10     con_beta_0  1.0000000000000009e-02
    sa_10     con_beta_ul_nco[PPE1]  60
    sa_10     con_beta_pw_0dkc[0,C1,P1,CPU1]  -8.91
    sa_10     con_beta_ps_tTLMdkc[2,3,C1,P1,CPU1]  2
    sa_10     con_beta_ps_tTLMdkc[2,3,C2,P1,CPU1]  6
    sa_10     con_beta_ps_tTLMdkc[3,3,C2,P1,CPU1]  7
    sa_10     con_beta_ps_tMdkc[1,4,C1,P1,CPU1]  28.218
    sa_10     con_beta_ps_tMdkc[1,4,C2,P1,CPU1]  -6.138
    sa_10     con_beta_ps_tMdkc[2,4,C2,P1,CPU1]  -6.93
    sa_11     con_beta_0  1.0000000000000009e-02
    sa_11     con_beta_ul_nco[PPE1]  60
    sa_11     con_beta_pw_0dkc[0,C1,P1,CPU1]  -8.91
    sa_11     con_beta_ps_t0dkc[1,0,C1,P1,CPU1]  18
    sa_11     con_beta_ps_tTLMdkc[2,3,C2,P1,CPU1]  7
    sa_11     con_beta_ps_tTLMdkc[3,2,C1,P1,CPU1]  -8.91
    sa_11     con_beta_ps_tTLMdkc[3,2,C2,P1,CPU1]  -0.99
    sa_11     con_beta_ps_tMdkc[1,4,C2,P1,CPU1]  2.0700000000000003e+00
    sa_11     con_beta_ps_tMdkc[2,4,C2,P1,CPU1]  -6.93
    sa_11     con_beta_ps_tMdkc[3,4,C2,P1,CPU1]  7
    sa_11     con_beta_ps_Tmdkc[4,1,C1,P1,CPU1]  10
    sa_12     OBJ       17.82
    sa_12     con_beta_0  1.0000000000000009e-02
    sa_12     con_beta_ul_nco[PPE1]  60
    sa_12     con_beta_pw_0dkc[0,C1,P1,CPU1]  -8.91
    sa_12     con_beta_pw_Mdkc[4,C1,P1,CPU1]  18
    sa_12     con_beta_ps_tTLMdkc[1,3,C1,P1,CPU1]  -8.91
    sa_12     con_beta_ps_tTLMdkc[1,3,C2,P1,CPU1]  -0.99
    sa_12     con_beta_ps_tTLMdkc[2,2,C1,P1,CPU1]  10
    sa_12     con_beta_ps_tTLMdkc[3,2,C1,P1,CPU1]  -8.91
    sa_12     con_beta_ps_tTLMdkc[3,2,C2,P1,CPU1]  -0.99
    sa_12     con_beta_ps_tMdkc[1,4,C2,P1,CPU1]  9
    sa_12     con_beta_ps_Tmdkc[4,1,C1,P1,CPU1]  10
    sa_13     OBJ       17.82
    sa_13     con_beta_0  1.0000000000000009e-02
    sa_13     con_beta_ul_nco[PPE1]  60
    sa_13     con_beta_pw_0dkc[0,C1,P1,CPU1]  9.09
    sa_13     con_beta_ps_tTLMdkc[1,3,C1,P1,CPU1]  -8.91
    sa_13     con_beta_ps_tTLMdkc[1,3,C2,P1,CPU1]  -0.99
    sa_13     con_beta_ps_tTLMdkc[2,2,C1,P1,CPU1]  10
    sa_13     con_beta_ps_tTLMdkc[3,2,C1,P1,CPU1]  -8.91
    sa_13     con_beta_ps_tTLMdkc[3,2,C2,P1,CPU1]  -0.99
    sa_13     con_beta_ps_tMdkc[1,4,C2,P1,CPU1]  9
    sa_13     con_beta_ps_Tmdkc[4,1,C1,P1,CPU1]  10
    sa_14     con_beta_0  1.0000000000000009e-02
    sa_14     con_beta_ul_nco[PPE1]  60
    sa_14     con_beta_pw_0dkc[0,C1,P1,CPU1]  -8.91
    sa_14     con_beta_ps_tTLMdkc[1,3,C1,P1,CPU1]  9.09
    sa_14     con_beta_ps_tTLMdkc[1,3,C2,P1,CPU1]  -0.99
    sa_14     con_beta_ps_tTLMdkc[2,2,C1,P1,CPU1]  10
    sa_14     con_beta_ps_tTLMdkc[3,2,C1,P1,CPU1]  -8.91
    sa_14     con_beta_ps_tTLMdkc[3,2,C2,P1,CPU1]  -0.99
    sa_14     con_beta_ps_tMdkc[1,4,C2,P1,CPU1]  9
    sa_14     con_beta_ps_Tmdkc[4,1,C1,P1,CPU1]  10
    sa_15     OBJ       29.7
    sa_15     con_beta_0  1.0000000000000009e-02
    sa_15     con_beta_ul_nco[PPE1]  60
    sa_15     con_beta_pw_0dkc[0,C1,P1,CPU1]  -8.91
    sa_15     con_beta_pw_1TLdkc[1,C1,P1,CPU1]  30
    sa_15     con_beta_ps_tTLMdkc[1,3,C2,P1,CPU1]  -6.93
    sa_15     con_beta_ps_tTLMdkc[2,2,C2,P1,CPU1]  7
    sa_15     con_beta_ps_tMdkc[3,4,C1,P1,CPU1]  -8.91
    sa_15     con_beta_ps_tMdkc[3,4,C2,P1,CPU1]  -0.99
    sa_15     con_beta_ps_Tmdkc[4,4,C1,P1,CPU1]  10
    sa_16     OBJ       9.9
    sa_16     con_beta_0  1.0000000000000009e-02
    sa_16     con_beta_ul_nco[PPE1]  60
    sa_16     con_beta_pw_0dkc[0,C1,P1,CPU1]  -8.91
    sa_16     con_beta_pw_TLMdkc[3,C2,P1,CPU1]  10
    sa_16     con_beta_ps_tTLMdkc[1,2,C1,P1,CPU1]  14
    sa_16     con_beta_ps_tTLMdkc[1,3,C2,P1,CPU1]  -6.93
    sa_16     con_beta_ps_tTLMdkc[2,2,C2,P1,CPU1]  7
    sa_16     con_beta_ps_tMdkc[1,4,C2,P1,CPU1]  2
    sa_16     con_beta_ps_tMdkc[2,4,C2,P1,CPU1]  -6.93
    sa_16     con_beta_ps_tMdkc[3,4,C2,P1,CPU1]  7
    sa_17     con_beta_0  1.0000000000000009e-02
    sa_17     con_beta_ul_nco[PPE1]  60
    sa_17     con_beta_pw_0dkc[0,C1,P1,CPU1]  -8.91
    sa_17     con_beta_ps_tTLMdkc[1,2,C1,P1,CPU1]  30
    sa_17     con_beta_ps_tTLMdkc[1,3,C2,P1,CPU1]  -6.93
    sa_17     con_beta_ps_tTLMdkc[2,2,C2,P1,CPU1]  7
    sa_17     con_beta_ps_tMdkc[2,4,C2,P1,CPU1]  -6.93
    sa_17     con_beta_ps_tMdkc[3,4,C2,P1,CPU1]  7
    sa_18     con_beta_0  1.0000000000000009e-02
    sa_18     con_beta_ul_nco[PPE1]  60
    sa_18     con_beta_pw_0dkc[0,C1,P1,CPU1]  -8.91
    sa_18     con_beta_ps_tTLMdkc[1,2,C1,P1,CPU1]  30
    sa_18     con_beta_ps_tTLMdkc[1,3,C2,P1,CPU1]  -6.93
    sa_18     con_beta_ps_tTLMdkc[2,2,C2,P1,CPU1]  7
    sa_18     con_beta_ps_tMdkc[2,4,C2,P1,CPU1]  -6.93
    sa_18     con_beta_ps_tMdkc[3,4,C1,P1,CPU1]  -8.91
    sa_18     con_beta_ps_tMdkc[3,4,C2,P1,CPU1]  6.01
    sa_18     con_beta_ps_Tmdkc[4,3,C1,P1,CPU1]  10
    sa_20     con_beta_0  1.0000000000000009e-02
    sa_20     con_beta_pw_0dkc[0,C1,P1,CPU1]  -8.91
    sa_21     con_beta_0  1.0000000000000009e-02
    sa_21     con_beta_pw_0dkc[0,C1,P1,CPU1]  -8.91
    sa_22     con_beta_0  1.0000000000000009e-02
    sa_22     con_beta_pw_0dkc[0,C1,P1,CPU1]  -8.91
    sa_23     con_beta_0  1.0000000000000009e-02
    sa_23     con_beta_pw_0dkc[0,C1,P1,CPU1]  -8.91
    sa_24     con_beta_0  1.0000000000000009e-02
    sa_24     con_beta_pw_0dkc[0,C1,P1,CPU1]  -8.91
    sa_25     con_beta_0  1.0000000000000009e-02
    sa_25     con_beta_pw_0dkc[0,C1,P1,CPU1]  -8.91
    sa_26     con_beta_0  1.0000000000000009e-02
    sa_26     con_beta_pw_0dkc[0,C1,P1,CPU1]  -8.91
    sa_27     con_beta_0  1.0000000000000009e-02
    sa_27     con_beta_pw_0dkc[0,C1,P1,CPU1]  -8.91
    sa_28     con_beta_0  1.0000000000000009e-02
    sa_28     con_beta_pw_0dkc[0,C1,P1,CPU1]  -8.91
    sa_29     con_beta_0  1.0000000000000009e-02
    sa_29     con_beta_pw_0dkc[0,C1,P1,CPU1]  -8.91
    sa_30     con_beta_0  1.0000000000000009e-02
    sa_30     con_beta_pw_0dkc[0,C1,P1,CPU1]  -8.91
    sa_31     con_beta_0  1.0000000000000009e-02
    sa_31     con_beta_pw_0dkc[0,C1,P1,CPU1]  -8.91
    sa_32     con_beta_0  1.0000000000000009e-02
    sa_32     con_beta_pw_0dkc[0,C1,P1,CPU1]  -8.91
    sa_33     con_beta_0  1.0000000000000009e-02
    sa_33     con_beta_pw_0dkc[0,C1,P1,CPU1]  -8.91
    sa_34     con_beta_0  1.0000000000000009e-02
    sa_34     con_beta_pw_0dkc[0,C1,P1,CPU1]  -8.91
    sa_35     con_beta_0  1.0000000000000009e-02
    sa_35     con_beta_pw_0dkc[0,C1,P1,CPU1]  -8.91
    sa_36     con_beta_0  1.0000000000000009e-02
    sa_36     con_beta_pw_0dkc[0,C1,P1,CPU1]  -8.91
    sa_37     con_beta_0  1.0000000000000009e-02
    sa_37     con_beta_pw_0dkc[0,C1,P1,CPU1]  -8.91
    sa_38     con_beta_0  1.0000000000000009e-02
    sa_38     con_beta_pw_0dkc[0,C1,P1,CPU1]  -8.91
    sa_39     con_beta_0  1.0000000000000009e-02
    sa_39     con_beta_pw_0dkc[0,C1,P1,CPU1]  -8.91
    sa_40     con_beta_0  1.0000000000000009e-02
    sa_40     con_beta_pw_0dkc[0,C1,P1,CPU1]  -8.91
    sa_41     con_beta_0  1.0000000000000009e-02
    sa_41     con_beta_pw_0dkc[0,C1,P1,CPU1]  -8.91
    sa_42     con_beta_0  1.0000000000000009e-02
    sa_42     con_beta_pw_0dkc[0,C1,P1,CPU1]  -8.91
    sa_43     con_beta_0  1.0000000000000009e-02
    sa_43     con_beta_pw_0dkc[0,C1,P1,CPU1]  -8.91
    sa_44     con_beta_0  1.0000000000000009e-02
    sa_44     con_beta_pw_0dkc[0,C1,P1,CPU1]  -8.91
    sa_45     con_beta_0  1.0000000000000009e-02
    sa_45     con_beta_pw_0dkc[0,C1,P1,CPU1]  -8.91
    sa_46     con_beta_0  1.0000000000000009e-02
    sa_46     con_beta_pw_0dkc[0,C1,P1,CPU1]  -8.91
    sa_47     con_beta_0  1.0000000000000009e-02
    sa_47     con_beta_pw_0dkc[0,C1,P1,CPU1]  -8.91
    sa_48     con_beta_0  1.0000000000000009e-02
    sa_48     con_beta_pw_0dkc[0,C1,P1,CPU1]  -8.91
    sa_49     con_beta_0  1.0000000000000009e-02
    sa_49     con_beta_pw_0dkc[0,C1,P1,CPU1]  -8.91
    sa_50     con_beta_0  1.0000000000000009e-02
    sa_50     con_beta_pw_0dkc[0,C1,P1,CPU1]  -8.91
    sa_51     con_beta_0  1.0000000000000009e-02
    sa_51     con_beta_pw_0dkc[0,C1,P1,CPU1]  -8.91
    sa_52     con_beta_0  1.0000000000000009e-02
    sa_52     con_beta_pw_0dkc[0,C1,P1,CPU1]  -8.91
    sa_53     con_beta_0  1.0000000000000009e-02
    sa_53     con_beta_pw_0dkc[0,C1,P1,CPU1]  -8.91
    sa_54     con_beta_0  1.0000000000000009e-02
    sa_54     con_beta_pw_0dkc[0,C1,P1,CPU1]  -8.91
    sa_55     con_beta_0  1.0000000000000009e-02
    sa_55     con_beta_pw_0dkc[0,C1,P1,CPU1]  -8.91
    sa_56     con_beta_0  1.0000000000000009e-02
    sa_56     con_beta_pw_0dkc[0,C1,P1,CPU1]  -8.91
    sa_57     con_beta_0  1.0000000000000009e-02
    sa_57     con_beta_pw_0dkc[0,C1,P1,CPU1]  -8.91
    sa_58     con_beta_0  1.0000000000000009e-02
    sa_58     con_beta_pw_0dkc[0,C1,P1,CPU1]  -8.91
    sa_59     con_beta_0  1.0000000000000009e-02
    sa_59     con_beta_pw_0dkc[0,C1,P1,CPU1]  -8.91
    sa_60     con_beta_0  1.0000000000000009e-02
    sa_60     con_beta_pw_0dkc[0,C1,P1,CPU1]  -8.91
    sa_61     con_beta_0  1.0000000000000009e-02
    sa_61     con_beta_pw_0dkc[0,C1,P1,CPU1]  -8.91
    sa_62     con_beta_0  1.0000000000000009e-02
    sa_62     con_beta_pw_0dkc[0,C1,P1,CPU1]  -8.91
    sa_63     con_beta_0  1.0000000000000009e-02
    sa_63     con_beta_pw_0dkc[0,C1,P1,CPU1]  -8.91
    sa_64     con_beta_0  1.0000000000000009e-02
    sa_64     con_beta_pw_0dkc[0,C1,P1,CPU1]  -8.91
    sa_65     con_beta_0  1.0000000000000009e-02
    sa_65     con_beta_pw_0dkc[0,C1,P1,CPU1]  -8.91
    sa_66     con_beta_0  1.0000000000000009e-02
    sa_66     con_beta_pw_0dkc[0,C1,P1,CPU1]  -8.91
    sa_67     con_beta_0  1.0000000000000009e-02
    sa_67     con_beta_pw_0dkc[0,C1,P1,CPU1]  -8.91
    sa_68     con_beta_0  1.0000000000000009e-02
    sa_68     con_beta_pw_0dkc[0,C1,P1,CPU1]  -8.91
    sa_69     con_beta_0  1.0000000000000009e-02
    sa_69     con_beta_pw_0dkc[0,C1,P1,CPU1]  -8.91
    sa_70     con_beta_0  1.0000000000000009e-02
    sa_70     con_beta_pw_0dkc[0,C1,P1,CPU1]  -8.91
    sa_71     con_beta_0  1.0000000000000009e-02
    sa_71     con_beta_pw_0dkc[0,C1,P1,CPU1]  -8.91
    sa_72     con_beta_0  1.0000000000000009e-02
    sa_72     con_beta_pw_0dkc[0,C1,P1,CPU1]  -8.91
    sa_73     con_beta_0  1.0000000000000009e-02
    sa_73     con_beta_pw_0dkc[0,C1,P1,CPU1]  -8.91
    sa_74     con_beta_0  1.0000000000000009e-02
    sa_74     con_beta_pw_0dkc[0,C1,P1,CPU1]  -8.91
    sa_75     con_beta_0  1.0000000000000009e-02
    sa_75     con_beta_pw_0dkc[0,C1,P1,CPU1]  -8.91
    sa_76     con_beta_0  1.0000000000000009e-02
    sa_76     con_beta_pw_0dkc[0,C1,P1,CPU1]  -8.91
    sa_77     con_beta_0  1.0000000000000009e-02
    sa_77     con_beta_pw_0dkc[0,C1,P1,CPU1]  -8.91
    sa_78     con_beta_0  1.0000000000000009e-02
    sa_78     con_beta_pw_0dkc[0,C1,P1,CPU1]  -8.91
    sa_79     con_beta_0  1.0000000000000009e-02
    sa_79     con_beta_pw_0dkc[0,C1,P1,CPU1]  -8.91
    sa_80     con_beta_0  1.0000000000000009e-02
    sa_80     con_beta_pw_0dkc[0,C1,P1,CPU1]  -8.91
    sa_81     con_beta_0  1.0000000000000009e-02
    sa_81     con_beta_pw_0dkc[0,C1,P1,CPU1]  -8.91
    sa_82     con_beta_0  1.0000000000000009e-02
    sa_82     con_beta_pw_0dkc[0,C1,P1,CPU1]  -8.91
    sa_83     con_beta_0  1.0000000000000009e-02
    sa_83     con_beta_pw_0dkc[0,C1,P1,CPU1]  -8.91
    sa_84     con_beta_0  1.0000000000000009e-02
    sa_84     con_beta_pw_0dkc[0,C1,P1,CPU1]  -8.91
    sa_85     con_beta_0  1.0000000000000009e-02
    sa_85     con_beta_pw_0dkc[0,C1,P1,CPU1]  -8.91
    sa_86     con_beta_0  1.0000000000000009e-02
    sa_86     con_beta_pw_0dkc[0,C1,P1,CPU1]  -8.91
    sa_87     con_beta_0  1.0000000000000009e-02
    sa_87     con_beta_pw_0dkc[0,C1,P1,CPU1]  -8.91
    sa_88     con_beta_0  1.0000000000000009e-02
    sa_88     con_beta_pw_0dkc[0,C1,P1,CPU1]  -8.91
    sa_89     con_beta_0  1.0000000000000009e-02
    sa_89     con_beta_pw_0dkc[0,C1,P1,CPU1]  -8.91
    sa_90     con_beta_0  1.0000000000000009e-02
    sa_90     con_beta_pw_0dkc[0,C1,P1,CPU1]  -8.91
    sa_91     con_beta_0  1.0000000000000009e-02
    sa_91     con_beta_pw_0dkc[0,C1,P1,CPU1]  -8.91
    sa_92     con_beta_0  1.0000000000000009e-02
    sa_92     con_beta_pw_0dkc[0,C1,P1,CPU1]  -8.91
    sa_93     con_beta_0  1.0000000000000009e-02
    sa_93     con_beta_pw_0dkc[0,C1,P1,CPU1]  -8.91
    sa_94     con_beta_0  1.0000000000000009e-02
    sa_94     con_beta_pw_0dkc[0,C1,P1,CPU1]  -8.91
    sa_95     con_beta_0  1.0000000000000009e-02
    sa_95     con_beta_pw_0dkc[0,C1,P1,CPU1]  -8.91
    sa_96     con_beta_0  1.0000000000000009e-02
    sa_96     con_beta_pw_0dkc[0,C1,P1,CPU1]  -8.91
    sa_97     con_beta_0  1.0000000000000009e-02
    sa_97     con_beta_pw_0dkc[0,C1,P1,CPU1]  -8.91
    sa_98     con_beta_0  1.0000000000000009e-02
    sa_98     con_beta_pw_0dkc[0,C1,P1,CPU1]  -8.91
    sa_99     con_beta_0  1.0000000000000009e-02
    sa_99     con_beta_pw_0dkc[0,C1,P1,CPU1]  -8.91
    sa_100    con_beta_0  1.0000000000000009e-02
    sa_100    con_beta_pw_0dkc[0,C1,P1,CPU1]  -8.91
    sa_101    con_beta_0  1.0000000000000009e-02
    sa_101    con_beta_pw_0dkc[0,C1,P1,CPU1]  -8.91
    sa_102    con_beta_0  1.0000000000000009e-02
    sa_102    con_beta_pw_0dkc[0,C1,P1,CPU1]  -8.91
    sa_103    con_beta_0  1.0000000000000009e-02
    sa_103    con_beta_pw_0dkc[0,C1,P1,CPU1]  -8.91
    sa_104    con_beta_0  1.0000000000000009e-02
    sa_104    con_beta_pw_0dkc[0,C1,P1,CPU1]  -8.91
    sa_105    con_beta_0  1.0000000000000009e-02
    sa_105    con_beta_pw_0dkc[0,C1,P1,CPU1]  -8.91
    sa_106    con_beta_0  1.0000000000000009e-02
    sa_106    con_beta_pw_0dkc[0,C1,P1,CPU1]  -8.91
    sa_107    con_beta_0  1.0000000000000009e-02
    sa_107    con_beta_pw_0dkc[0,C1,P1,CPU1]  -8.91
    sa_108    con_beta_0  1.0000000000000009e-02
    sa_108    con_beta_pw_0dkc[0,C1,P1,CPU1]  -8.91
    sa_109    con_beta_0  1.0000000000000009e-02
    sa_109    con_beta_pw_0dkc[0,C1,P1,CPU1]  -8.91
    sa_110    con_beta_0  1.0000000000000009e-02
    sa_110    con_beta_pw_0dkc[0,C1,P1,CPU1]  -8.91
    sa_111    con_beta_0  1.0000000000000009e-02
    sa_111    con_beta_pw_0dkc[0,C1,P1,CPU1]  -8.91
    sa_112    con_beta_0  1.0000000000000009e-02
    sa_112    con_beta_pw_0dkc[0,C1,P1,CPU1]  -8.91
    sa_113    con_beta_0  1.0000000000000009e-02
    sa_113    con_beta_pw_0dkc[0,C1,P1,CPU1]  -8.91
    sa_114    con_beta_0  1.0000000000000009e-02
    sa_114    con_beta_pw_0dkc[0,C1,P1,CPU1]  -8.91
    sa_115    con_beta_0  1.0000000000000009e-02
    sa_115    con_beta_pw_0dkc[0,C1,P1,CPU1]  -8.91
    sa_116    con_beta_0  1.0000000000000009e-02
    sa_116    con_beta_pw_0dkc[0,C1,P1,CPU1]  -8.91
    sa_117    con_beta_0  1.0000000000000009e-02
    sa_117    con_beta_pw_0dkc[0,C1,P1,CPU1]  -8.91
    sa_118    con_beta_0  1.0000000000000009e-02
    sa_118    con_beta_pw_0dkc[0,C1,P1,CPU1]  -8.91
    sa_119    con_beta_0  1.0000000000000009e-02
    sa_119    con_beta_pw_0dkc[0,C1,P1,CPU1]  -8.91
    sa_120    con_beta_0  1.0000000000000009e-02
    sa_120    con_beta_pw_0dkc[0,C1,P1,CPU1]  -8.91
    sa_121    con_beta_0  1.0000000000000009e-02
    sa_121    con_beta_pw_0dkc[0,C1,P1,CPU1]  -8.91
RHS
    RHS1      con_beta_0  1
    RHS1      con_beta_pw_0dkc[0,C1,P1,CPU1]  10
    RHS1      con_beta_pw_1TLdkc[1,C1,P1,CPU1]  5
    RHS1      con_beta_pw_TLMdkc[2,C1,P1,CPU1]  2.5
    RHS1      con_beta_pw_TLMdkc[3,C1,P1,CPU1]  1.25
    RHS1      con_beta_pw_TLMdkc[3,C2,P1,CPU1]  1.25
    RHS1      con_beta_pw_Mdkc[4,C1,P1,CPU1]  0.625
    RHS1      con_beta_pw_Mdkc[4,C2,P1,CPU1]  0.625
    RHS1      con_beta_ps_t0dkc[1,0,C1,P1,CPU1]  5
    RHS1      con_beta_ps_t0dkc[2,0,C1,P1,CPU1]  2.5
    RHS1      con_beta_ps_t0dkc[3,0,C1,P1,CPU1]  1.25
    RHS1      con_beta_ps_t1TLdkc[1,1,C1,P1,CPU1]  2.5
    RHS1      con_beta_ps_t1TLdkc[2,1,C1,P1,CPU1]  1.25
    RHS1      con_beta_ps_t1TLdkc[3,1,C1,P1,CPU1]  0.625
    RHS1      con_beta_ps_tTLMdkc[1,2,C1,P1,CPU1]  1.25
    RHS1      con_beta_ps_tTLMdkc[1,3,C1,P1,CPU1]  0.625
    RHS1      con_beta_ps_tTLMdkc[1,3,C2,P1,CPU1]  0.625
    RHS1      con_beta_ps_tTLMdkc[2,2,C1,P1,CPU1]  0.625
    RHS1      con_beta_ps_tTLMdkc[2,3,C1,P1,CPU1]  0.3125
    RHS1      con_beta_ps_tTLMdkc[2,3,C2,P1,CPU1]  0.3125
    RHS1      con_beta_ps_tTLMdkc[3,2,C1,P1,CPU1]  0.3125
    RHS1      con_beta_ps_tTLMdkc[3,3,C1,P1,CPU1]  0.15625
    RHS1      con_beta_ps_tTLMdkc[3,3,C2,P1,CPU1]  0.15625
    RHS1      con_beta_ps_tMdkc[1,4,C1,P1,CPU1]  0.3125
    RHS1      con_beta_ps_tMdkc[1,4,C2,P1,CPU1]  0.3125
    RHS1      con_beta_ps_tMdkc[2,4,C1,P1,CPU1]  0.15625
    RHS1      con_beta_ps_tMdkc[2,4,C2,P1,CPU1]  0.15625
    RHS1      con_beta_ps_tMdkc[3,4,C1,P1,CPU1]  0.078125
    RHS1      con_beta_ps_tMdkc[3,4,C2,P1,CPU1]  0.078125
    RHS1      con_beta_ps_Tmdkc[4,0,C1,P1,CPU1]  0.625
    RHS1      con_beta_ps_Tmdkc[4,1,C1,P1,CPU1]  0.3125
    RHS1      con_beta_ps_Tmdkc[4,2,C1,P1,CPU1]  0.15625
    RHS1      con_beta_ps_Tmdkc[4,3,C1,P1,CPU1]  0.078125
    RHS1      con_beta_ps_Tmdkc[4,3,C2,P1,CPU1]  0.078125
    RHS1      con_beta_ps_Tmdkc[4,4,C1,P1,CPU1]  0.0390625
    RHS1      con_beta_ps_Tmdkc[4,4,C2,P1,CPU1]  0.0390625
BOUNDS
ENDATA
